p cnf 298 903
-43 -28 0
-44 -28 0
-44 -43 0
-45 -28 0
-45 -43 0
-45 -44 0
-29 -28 0
-29 -43 0
-29 -44 0
-29 -45 0
-46 -28 0
-46 -43 0
-46 -44 0
-46 -45 0
-46 -29 0
-47 -28 0
-47 -43 0
-47 -44 0
-47 -45 0
-47 -29 0
-47 -46 0
-30 -28 0
-30 -43 0
-30 -44 0
-30 -45 0
-30 -29 0
-30 -46 0
-30 -47 0
-31 -28 0
-31 -43 0
-31 -44 0
-31 -45 0
-31 -29 0
-31 -46 0
-31 -47 0
-31 -30 0
-48 -28 0
-48 -43 0
-48 -44 0
-48 -45 0
-48 -29 0
-48 -46 0
-48 -47 0
-48 -30 0
-48 -31 0
-32 -28 0
-32 -43 0
-32 -44 0
-32 -45 0
-32 -29 0
-32 -46 0
-32 -47 0
-32 -30 0
-32 -31 0
-32 -48 0
-49 -28 0
-49 -43 0
-49 -44 0
-49 -45 0
-49 -29 0
-49 -46 0
-49 -47 0
-49 -30 0
-49 -31 0
-49 -48 0
-49 -32 0
-33 -28 0
-33 -43 0
-33 -44 0
-33 -45 0
-33 -29 0
-33 -46 0
-33 -47 0
-33 -30 0
-33 -31 0
-33 -48 0
-33 -32 0
-33 -49 0
-34 -28 0
-34 -43 0
-34 -44 0
-34 -45 0
-34 -29 0
-34 -46 0
-34 -47 0
-34 -30 0
-34 -31 0
-34 -48 0
-34 -32 0
-34 -49 0
-34 -33 0
-35 -28 0
-35 -43 0
-35 -44 0
-35 -45 0
-35 -29 0
-35 -46 0
-35 -47 0
-35 -30 0
-35 -31 0
-35 -48 0
-35 -32 0
-35 -49 0
-35 -33 0
-35 -34 0
-50 -28 0
-50 -43 0
-50 -44 0
-50 -45 0
-50 -29 0
-50 -46 0
-50 -47 0
-50 -30 0
-50 -31 0
-50 -48 0
-50 -32 0
-50 -49 0
-50 -33 0
-50 -34 0
-50 -35 0
-36 -28 0
-36 -43 0
-36 -44 0
-36 -45 0
-36 -29 0
-36 -46 0
-36 -47 0
-36 -30 0
-36 -31 0
-36 -48 0
-36 -32 0
-36 -49 0
-36 -33 0
-36 -34 0
-36 -35 0
-36 -50 0
-51 -28 0
-51 -43 0
-51 -44 0
-51 -45 0
-51 -29 0
-51 -46 0
-51 -47 0
-51 -30 0
-51 -31 0
-51 -48 0
-51 -32 0
-51 -49 0
-51 -33 0
-51 -34 0
-51 -35 0
-51 -50 0
-51 -36 0
-37 -28 0
-37 -43 0
-37 -44 0
-37 -45 0
-37 -29 0
-37 -46 0
-37 -47 0
-37 -30 0
-37 -31 0
-37 -48 0
-37 -32 0
-37 -49 0
-37 -33 0
-37 -34 0
-37 -35 0
-37 -50 0
-37 -36 0
-37 -51 0
-38 -28 0
-38 -43 0
-38 -44 0
-38 -45 0
-38 -29 0
-38 -46 0
-38 -47 0
-38 -30 0
-38 -31 0
-38 -48 0
-38 -32 0
-38 -49 0
-38 -33 0
-38 -34 0
-38 -35 0
-38 -50 0
-38 -36 0
-38 -51 0
-38 -37 0
-52 -28 0
-52 -43 0
-52 -44 0
-52 -45 0
-52 -29 0
-52 -46 0
-52 -47 0
-52 -30 0
-52 -31 0
-52 -48 0
-52 -32 0
-52 -49 0
-52 -33 0
-52 -34 0
-52 -35 0
-52 -50 0
-52 -36 0
-52 -51 0
-52 -37 0
-52 -38 0
-53 -28 0
-53 -43 0
-53 -44 0
-53 -45 0
-53 -29 0
-53 -46 0
-53 -47 0
-53 -30 0
-53 -31 0
-53 -48 0
-53 -32 0
-53 -49 0
-53 -33 0
-53 -34 0
-53 -35 0
-53 -50 0
-53 -36 0
-53 -51 0
-53 -37 0
-53 -38 0
-53 -52 0
-54 -28 0
-54 -43 0
-54 -44 0
-54 -45 0
-54 -29 0
-54 -46 0
-54 -47 0
-54 -30 0
-54 -31 0
-54 -48 0
-54 -32 0
-54 -49 0
-54 -33 0
-54 -34 0
-54 -35 0
-54 -50 0
-54 -36 0
-54 -51 0
-54 -37 0
-54 -38 0
-54 -52 0
-54 -53 0
-55 -28 0
-55 -43 0
-55 -44 0
-55 -45 0
-55 -29 0
-55 -46 0
-55 -47 0
-55 -30 0
-55 -31 0
-55 -48 0
-55 -32 0
-55 -49 0
-55 -33 0
-55 -34 0
-55 -35 0
-55 -50 0
-55 -36 0
-55 -51 0
-55 -37 0
-55 -38 0
-55 -52 0
-55 -53 0
-55 -54 0
-39 -28 0
-39 -43 0
-39 -44 0
-39 -45 0
-39 -29 0
-39 -46 0
-39 -47 0
-39 -30 0
-39 -31 0
-39 -48 0
-39 -32 0
-39 -49 0
-39 -33 0
-39 -34 0
-39 -35 0
-39 -50 0
-39 -36 0
-39 -51 0
-39 -37 0
-39 -38 0
-39 -52 0
-39 -53 0
-39 -54 0
-39 -55 0
-40 -28 0
-40 -43 0
-40 -44 0
-40 -45 0
-40 -29 0
-40 -46 0
-40 -47 0
-40 -30 0
-40 -31 0
-40 -48 0
-40 -32 0
-40 -49 0
-40 -33 0
-40 -34 0
-40 -35 0
-40 -50 0
-40 -36 0
-40 -51 0
-40 -37 0
-40 -38 0
-40 -52 0
-40 -53 0
-40 -54 0
-40 -55 0
-40 -39 0
-41 -28 0
-41 -43 0
-41 -44 0
-41 -45 0
-41 -29 0
-41 -46 0
-41 -47 0
-41 -30 0
-41 -31 0
-41 -48 0
-41 -32 0
-41 -49 0
-41 -33 0
-41 -34 0
-41 -35 0
-41 -50 0
-41 -36 0
-41 -51 0
-41 -37 0
-41 -38 0
-41 -52 0
-41 -53 0
-41 -54 0
-41 -55 0
-41 -39 0
-41 -40 0
-42 -28 0
-42 -43 0
-42 -44 0
-42 -45 0
-42 -29 0
-42 -46 0
-42 -47 0
-42 -30 0
-42 -31 0
-42 -48 0
-42 -32 0
-42 -49 0
-42 -33 0
-42 -34 0
-42 -35 0
-42 -50 0
-42 -36 0
-42 -51 0
-42 -37 0
-42 -38 0
-42 -52 0
-42 -53 0
-42 -54 0
-42 -55 0
-42 -39 0
-42 -40 0
-42 -41 0
28 43 44 45 29 46 47 30 31 48 32 49 33 34 35 50 36 51 37 38 52 53 54 55 39 40 41 42 0
-56 44 0
-57 44 0
-57 58 0
57 -58 44 0
-45 59 0
45 -59 0
45 -60 0
-47 -62 -61 0
-47 61 62 0
47 -61 0
47 -62 0
-48 -64 -63 0
-48 63 64 0
48 -63 0
48 -64 0
-49 -66 -65 0
-49 -67 -65 0
-49 -67 -66 0
-49 -68 -65 0
-49 -68 -66 0
-49 -68 -67 0
-49 65 66 67 68 0
49 -65 0
49 -66 0
49 -67 0
49 -68 0
-50 -70 -69 0
-50 69 70 0
50 -69 0
50 -70 0
-51 -72 -71 0
-51 -73 -71 0
-51 -73 -72 0
-51 71 72 73 0
51 -71 0
51 -72 0
51 -73 0
-51 -75 -74 0
-51 74 75 0
51 -74 0
51 -75 0
-51 -77 -76 0
-51 -78 -76 0
-51 -78 -77 0
-51 -79 -76 0
-51 -79 -77 0
-51 -79 -78 0
-51 -80 -76 0
-51 -80 -77 0
-51 -80 -78 0
-51 -80 -79 0
-51 -81 -76 0
-51 -81 -77 0
-51 -81 -78 0
-51 -81 -79 0
-51 -81 -80 0
-51 -82 -76 0
-51 -82 -77 0
-51 -82 -78 0
-51 -82 -79 0
-51 -82 -80 0
-51 -82 -81 0
-51 -83 -76 0
-51 -83 -77 0
-51 -83 -78 0
-51 -83 -79 0
-51 -83 -80 0
-51 -83 -81 0
-51 -83 -82 0
-51 76 77 78 79 80 81 82 83 0
51 -76 0
51 -77 0
51 -78 0
51 -79 0
51 -80 0
51 -81 0
51 -82 0
51 -83 0
-52 -85 -84 0
-52 84 85 0
52 -84 0
52 -85 0
-53 -87 -86 0
-53 -88 -86 0
-53 -88 -87 0
-53 -89 -86 0
-53 -89 -87 0
-53 -89 -88 0
-53 86 87 88 89 0
53 -86 0
53 -87 0
53 -88 0
53 -89 0
-54 90 0
54 -90 0
-55 -92 -91 0
-55 91 92 0
55 -91 0
55 -92 0
-46 -94 -93 0
-46 -95 -93 0
-46 -95 -94 0
-46 93 94 95 0
46 -93 0
46 -94 0
46 -95 0
-43 -98 -97 0
-43 97 98 0
43 -97 0
43 -98 0
-43 -100 -99 0
-43 -101 -99 0
-43 -101 -100 0
-43 99 100 101 0
43 -99 0
43 -100 0
43 -101 0
-102 -113 0
-102 29 31 0
-103 -113 0
-103 46 0
-113 -104 0
-113 -105 0
-113 -106 0
113 -29 -103 -102 0
113 -29 -102 -104 0
113 -29 -103 -104 0
113 -29 -102 -105 0
113 -29 -103 -105 0
113 -29 -104 -105 0
113 -29 -102 -106 0
113 -29 -103 -106 0
113 -29 -104 -106 0
113 -29 -105 -106 0
113 103 102 104 105 106 -29 0
113 -31 -103 -102 0
113 -31 -102 -104 0
113 -31 -103 -104 0
113 -31 -102 -105 0
113 -31 -103 -105 0
113 -31 -104 -105 0
113 -31 -102 -106 0
113 -31 -103 -106 0
113 -31 -104 -106 0
113 -31 -105 -106 0
113 103 102 104 105 106 -31 0
113 -46 -103 -102 0
113 -46 -102 -104 0
113 -46 -103 -104 0
113 -46 -102 -105 0
113 -46 -103 -105 0
113 -46 -104 -105 0
113 -46 -102 -106 0
113 -46 -103 -106 0
113 -46 -104 -106 0
113 -46 -105 -106 0
113 103 102 104 105 106 -46 0
113 -103 -102 0
113 -104 -102 0
113 -104 -103 0
113 -105 -102 0
113 -105 -103 0
113 -105 -104 0
113 -106 -102 0
113 -106 -103 0
113 -106 -104 0
113 -106 -105 0
113 102 103 104 105 106 0
113 -103 -102 0
113 -104 -102 0
113 -104 -103 0
113 -105 -102 0
113 -105 -103 0
113 -105 -104 0
113 -106 -102 0
113 -106 -103 0
113 -106 -104 0
113 -106 -105 0
113 102 103 104 105 106 0
113 -103 -102 0
113 -104 -102 0
113 -104 -103 0
113 -105 -102 0
113 -105 -103 0
113 -105 -104 0
113 -106 -102 0
113 -106 -103 0
113 -106 -104 0
113 -106 -105 0
113 102 103 104 105 106 0
-113 -102 0
-113 -103 0
-113 -104 0
-113 -105 0
-113 -106 0
46 -113 -102 0
46 -113 -103 0
46 -113 -104 0
46 -113 -105 0
46 -113 -106 0
29 31 -113 -102 0
29 31 -113 -103 0
29 31 -113 -104 0
29 31 -113 -105 0
29 31 -113 -106 0
29 46 31 -113 -102 0
29 46 31 -113 -103 0
29 46 31 -113 -104 0
29 46 31 -113 -105 0
29 46 31 -113 -106 0
-113 -102 0
-113 -103 0
-113 -104 0
-113 -105 0
-113 -106 0
-28 107 0
-44 107 0
-45 107 0
-29 107 0
-47 107 0
-30 107 0
-31 107 0
-48 107 0
-32 107 0
-49 107 0
-33 107 0
-34 107 0
-35 107 0
-37 107 0
-38 107 0
-36 107 0
-51 107 0
-52 107 0
-53 107 0
-54 107 0
-55 107 0
-39 107 0
-40 107 0
-41 107 0
-42 107 0
28 44 45 29 47 30 31 48 32 49 33 34 35 37 38 36 51 52 53 54 55 39 40 41 42 -107 0
-44 108 0
-48 108 0
-51 108 0
-53 108 0
-54 108 0
-46 108 0
-43 108 0
44 48 51 53 54 46 43 -108 0
-108 -110 -109 0
-108 109 110 0
108 -109 0
108 -110 0
-87 111 0
-86 111 0
-29 111 0
-30 111 0
-31 111 0
-48 111 0
-33 111 0
-37 111 0
-38 111 0
-39 111 0
-46 111 0
87 86 29 30 31 48 33 37 38 39 46 -111 0
-97 112 0
-98 112 0
-59 112 0
-61 112 0
-62 112 0
-88 112 0
-90 112 0
-28 112 0
-32 112 0
-49 112 0
-34 112 0
-50 112 0
-52 112 0
-41 112 0
97 98 59 61 62 88 90 28 32 49 34 50 52 41 -112 -111 0
112 -113 0
-31 115 0
-116 114 0
-117 114 0
-118 114 0
116 -119 0
116 28 49 34 35 52 55 41 -119 0
28 49 34 35 52 55 41 116 -119 0
28 49 34 35 52 55 41 -119 0
-86 120 0
-37 120 0
-38 120 0
-39 120 0
86 37 38 39 -120 0
-126 -125 121 0
-103 121 0
-102 121 0
126 103 102 -121 -120 0
125 103 102 -121 -120 0
-123 122 0
-30 122 0
123 30 -122 0
-28 123 0
-32 123 0
-34 123 0
-37 123 0
-38 123 0
-40 123 0
-104 123 0
-105 123 0
-106 123 0
28 32 34 37 38 40 104 105 106 -123 0
-44 124 0
-49 124 0
-51 124 0
-41 124 0
44 49 51 41 -124 0
-122 -125 0
-45 126 0
-272 126 0
45 272 -126 125 0
125 -127 0
125 -128 0
125 -129 0
-130 125 0
-132 131 0
132 -131 125 0
-132 125 0
125 -133 0
125 -134 0
125 128 -134 0
-135 134 0
134 -136 0
125 -137 0
125 -138 0
-139 125 0
-141 125 0
-144 107 0
-65 -145 0
-143 -142 0
-144 -142 0
-144 -143 0
-145 -142 0
-145 -143 0
-145 -144 0
142 143 144 145 0
142 146 0
-142 -146 0
-145 147 0
145 -147 0
-148 146 0
199 -149 0
-90 150 0
-28 150 0
-153 113 0
-152 -151 0
-153 -151 0
-153 -152 0
151 152 153 0
-159 158 0
-162 161 0
-162 124 0
170 -171 0
170 -172 0
173 172 0
170 172 173 0
170 -172 -173 0
-174 170 0
177 -178 0
177 -179 0
-181 -29 0
-181 -46 0
-143 190 0
-145 190 0
190 -191 0
-196 195 0
-197 195 0
-195 -198 0
-201 200 0
-202 200 0
-149 200 0
201 202 199 149 -200 0
199 -201 0
-202 199 0
-203 199 0
-203 201 202 0
199 -204 0
199 203 -204 0
199 -125 -204 0
203 199 -204 0
203 -204 0
203 -125 -204 0
199 -205 0
199 203 -205 0
199 -125 -205 0
203 199 -205 0
203 -205 0
203 -125 -205 0
-206 199 0
-206 200 0
-207 199 0
-207 206 0
-208 199 0
-211 209 0
199 211 -209 0
-210 199 0
-211 199 0
-211 201 202 0
-212 199 0
-213 199 0
-145 216 0
145 -216 0
-223 217 0
217 -218 0
-217 -220 -219 0
-217 -221 -219 0
-217 -221 -220 0
-217 219 220 221 0
217 -219 0
217 -220 0
217 -221 0
-223 222 0
-224 223 0
-225 223 0
-226 223 0
-226 -50 0
-223 -225 -224 0
-223 -226 -224 0
-223 -226 -225 0
-223 224 225 226 0
50 -224 -225 -223 0
50 -224 -223 -226 0
50 -225 -223 -226 0
50 224 225 226 -223 0
223 -224 0
223 -225 0
223 -226 0
223 -50 -224 0
223 -50 -225 0
223 -50 -226 0
223 -224 0
223 -225 0
223 -226 0
-227 226 0
-228 223 0
-229 217 0
-229 114 0
-230 223 0
-230 114 0
230 -231 0
-233 -232 0
-222 -233 0
-222 -234 0
-235 -234 0
-236 -234 0
-236 -235 0
-237 -234 0
-237 -235 0
-237 -236 0
-238 -234 0
-238 -235 0
-238 -236 0
-238 -237 0
-239 -234 0
-239 -235 0
-239 -236 0
-239 -237 0
-239 -238 0
-240 -234 0
-240 -235 0
-240 -236 0
-240 -237 0
-240 -238 0
-240 -239 0
234 235 236 237 238 239 240 0
234 -242 -241 0
234 -243 -241 0
234 -243 -242 0
234 241 242 243 0
-234 -241 0
-234 -242 0
-234 -243 0
-234 -245 0
-234 -246 0
-248 150 0
-254 253 0
-256 255 0
-257 223 0
-257 295 0
261 -262 0
263 -264 0
-265 269 0
-267 164 0
263 -269 0
-270 269 0
-272 125 0
-272 44 31 49 51 52 0
-274 273 0
-32 275 0
32 -275 0
-275 -276 0
-277 276 0
-278 276 0
-276 -285 -280 -279 0
-276 -285 279 280 0
276 -279 0
276 -280 0
285 -279 0
285 -280 0
-281 276 0
125 -282 0
-283 125 0
-286 146 0
-286 143 0
-285 -287 0
-291 288 0
-289 125 0
-290 125 0
-291 151 153 0
-292 125 0
-285 293 0
-296 0
-297 0
-298 0
